files/upTests/tupley32-7-1-7c/0001.eprime
language ESSENCE' 1.0

find pain_tuple1: matrix indexed by [int(1)] of int(2)
find pain_tuple2_tuple1: matrix indexed by [int(1)] of int(5)
find pain_tuple3_tuple1: matrix indexed by [int(1)] of int(10)
find pain_tuple3_tuple2: matrix indexed by [int(1)] of int(11)
such that
    pain_tuple1[1] = 2,
    pain_tuple2_tuple1[1] = 5,
    pain_tuple3_tuple1[1] = 10,
    pain_tuple3_tuple2[1] = 11
