files/upTests/tupley32-7-1-7c/0001.eprime.solution
language ESSENCE' 1.0
$ minion Nodes: 1
$ minion TotalTime: 0.000539
$ Savile Row TotalTime: 0.212
letting pain_tuple1 be [2;int(1)]
letting pain_tuple3_tuple2 be [11;int(1)]
letting pain_tuple3_tuple1 be [10;int(1)]
letting pain_tuple2_tuple1 be [5;int(1)]
